Sun 20 May 09:52:56 CEST 2018
CPXPARAM_TimeLimit                               45
CPXPARAM_Threads                                 4
CPXPARAM_MIP_Strategy_CallbackReducedLP          0
Tried aggregator 6 times.
MIP Presolve eliminated 6660 rows and 6616 columns.
MIP Presolve modified 22244 coefficients.
Aggregator did 40280 substitutions.
Reduced MIP has 56150 rows, 38741 columns, and 121588 nonzeros.
Reduced MIP has 35722 binaries, 11 generals, 0 SOSs, and 4328 indicators.
Presolve time = 1.19 sec. (3827.21 ticks)
Found incumbent of value 30.000000 after 1.55 sec. (4183.98 ticks)
Probing time = 0.72 sec. (198.58 ticks)
Tried aggregator 3 times.
Aggregator did 26352 substitutions.
Reduced MIP has 29798 rows, 12389 columns, and 68884 nonzeros.
Reduced MIP has 9370 binaries, 3019 generals, 0 SOSs, and 4328 indicators.
Presolve time = 0.16 sec. (180.98 ticks)
Probing time = 0.20 sec. (130.13 ticks)
Tried aggregator 1 time.
Reduced MIP has 29798 rows, 12389 columns, and 68884 nonzeros.
Reduced MIP has 9370 binaries, 3019 generals, 0 SOSs, and 4328 indicators.
Presolve time = 0.06 sec. (59.06 ticks)
Probing time = 0.02 sec. (10.74 ticks)
Clique table members: 892984.
MIP emphasis: balance optimality and feasibility.
MIP search method: dynamic search.
Parallel mode: deterministic, using up to 4 threads.
Root relaxation solution time = 0.81 sec. (601.75 ticks)

        Nodes                                         Cuts/
   Node  Left     Objective  IInf  Best Integer    Best Bound    ItCnt     Gap

*     0+    0                           30.0000        0.0000           100.00%
      0     0        0.0000  6036       30.0000        0.0000     3074  100.00%

Root node processing (before b&c):
  Real time             =   58.89 sec. (35159.24 ticks)
Parallel b&c, 4 threads:
  Real time             =    0.00 sec. (0.00 ticks)
  Sync time (average)   =    0.00 sec.
  Wait time (average)   =    0.00 sec.
                          ------------
Total (root+branch&cut) =   58.89 sec. (35159.24 ticks)
   | W
 L | 0 1 2 3 4 5 6 7 8  9 10 
-----------------------------
 0 | 5 . . . . . . . .  .  3 
 1 | . . . . . . . . .  .  . 
 2 | . . . . . . . . .  .  . 
 3 | . . . . . . . . .  .  . 
 4 | . . . . . . . . .  .  . 
 5 | . . . . . . . . .  .  . 
 6 | . . . . . . . . .  9  9 
 7 | . . . . . . . . .  9  9 
 8 | . . . . . . . . .  9  9 
 9 | . . . . . . . . .  9  9 
10 | . . . . . . . . .  9  9 
11 | . . . . . . . . .  2  . 
12 | . . . . . . . 8 8  2  . 
13 | . . . . . . . 8 8  2  . 
14 | . . . . . . . 8 8  .  . 
15 | . . . . . . . 8 8  .  . 
16 | . . . . . . . 8 8  .  1 
17 | . . . . . . . . 7  7  1 
18 | . . . . . . . . 7  7  1 
19 | . . . . . . . . 7  7  . 
20 | . . . . . . . . 7  7  . 
21 | . . . . . . . . 7  7  . 
22 | . . . . . . . . .  .  . 
23 | . . . . . . . . . 10 10 
24 | . . . . . . . . . 10 10 
25 | . . . . . . . . . 10 10 
26 | . . . . . . . . . 10 10 
27 | . . . . . . . . . 10 10 
28 | . . . . . . . . .  .  . 
29 | 4 . . . . . . . .  .  6 

Boxes' corners:       (w,l)
    Box  1 is at 
        top left     (10,16)
        bottom right (10,18)

    Box  2 is at 
        top left     (9,11)
        bottom right (9,13)

    Box  3 is at 
        top left     (10,0)
        bottom right (10,0)

    Box  4 is at 
        top left     (0,29)
        bottom right (0,29)

    Box  5 is at 
        top left     (0,0)
        bottom right (0,0)

    Box  6 is at 
        top left     (10,29)
        bottom right (10,29)

    Box  7 is at 
        top left     (8,17)
        bottom right (9,21)

    Box  8 is at 
        top left     (7,12)
        bottom right (8,16)

    Box  9 is at 
        top left     (9,6)
        bottom right (10,10)

    Box 10 is at 
        top left     (9,23)
        bottom right (10,27)

    Roll length used: 30
In 199.83 seconds
